(set-option :produce-models true)
(set-logic QF_UF)
(declare-fun p6() Bool)
(declare-fun p22() Bool)
(declare-fun p30() Bool)
(declare-fun p26() Bool)
(declare-fun p1() Bool)
(declare-fun p0() Bool)
(declare-fun p5() Bool)
(declare-fun p12() Bool)
(declare-fun p20() Bool)
(declare-fun p36() Bool)
(declare-fun p24() Bool)
(declare-fun p14() Bool)
(declare-fun p11() Bool)
(declare-fun p37() Bool)
(declare-fun p32() Bool)
(declare-fun p10() Bool)
(declare-fun p25() Bool)
(declare-fun p23() Bool)
(declare-fun p13() Bool)
(declare-fun p15() Bool)
(declare-fun p34() Bool)
(declare-fun p21() Bool)
(declare-fun p17() Bool)
(declare-fun p29() Bool)
(declare-fun p33() Bool)
(declare-fun p38() Bool)
(declare-fun p31() Bool)
(declare-fun p18() Bool)
(declare-fun p3() Bool)
(declare-fun p7() Bool)
(declare-fun p8() Bool)
(declare-fun p4() Bool)
(declare-fun p9() Bool)
(declare-fun p35() Bool)
(declare-fun p39() Bool)
(declare-fun p28() Bool)
(declare-fun p2() Bool)
(declare-fun p16() Bool)
(declare-fun p27() Bool)
(declare-fun p19() Bool)
(assert
(and (or p6 (not p22) (not p30)) (or p26 (not p1) (not p0)) (or p5 p12 p20) (or (not p36) p24 p14) (or p11 (not p22) (not p30)) (or p37 p32 p10) (or (not p25) (not p26) (not p30)) (or p12 p37 (not p1)) (or p5 p32 (not p1)) (or (not p23) p30 (not p13)) (or (not p15) (not p34) (not p30)) (or p26 p21 p10) (or p17 (not p14) (not p37)) (or (not p29) (not p14) (not p33)) (or p14 p38 (not p31)) (or (not p18) (not p30) p3) (or p25 p7 (not p24)) (or p20 (not p34) (not p5)) (or p32 p33 p38) (or (not p8) (not p8) p34) (or p21 p4 p33) (or p8 p9 p26) (or p30 (not p1) p14) (or (not p35) p22 (not p13)) (or (not p7) (not p38) (not p9)) (or (not p39) p26 p14) (or (not p25) p34 (not p28)) (or (not p6) (not p33) (not p0)) (or p12 p28 p8) (or (not p24) p12 (not p26)) (or (not p2) (not p6) p9) (or p20 (not p1) p39) (or p6 p1 p10) (or p11 p39 (not p8)) (or p2 (not p10) p7) (or (not p6) p8 (not p0)) (or p23 p20 p0) (or p6 p28 (not p21)) (or (not p36) p26 (not p20)) (or p3 (not p29) (not p9)) (or p33 p16 (not p4)) (or (not p33) p28 p14) (or (not p39) (not p36) p35) (or p4 p25 p2) (or (not p1) (not p20) p20) (or (not p6) (not p24) p10) (or (not p34) p18 p10) (or (not p9) p1 (not p32)) (or p18 (not p20) p8) (or p1 (not p38) (not p20)) (or p32 p33 (not p13)) (or p28 p17 (not p31)) (or p6 (not p22) (not p23)) (or p15 (not p20) (not p26)) (or (not p2) p15 (not p8)) (or (not p1) p17 p1) (or p16 p8 (not p27)) (or (not p30) (not p36) (not p7)) (or p3 (not p10) p27) (or p0 p38 (not p16)) (or p21 (not p29) p22) (or (not p25) (not p10) p9) (or p38 (not p20) (not p0)) (or p15 p32 p37) (or p0 p32 (not p13)) (or p21 p13 (not p1)) (or p27 (not p19) (not p0)) (or (not p31) (not p11) (not p27)) (or p21 (not p24) p1) (or p13 (not p24) (not p28)) (or (not p23) (not p5) (not p10)) (or (not p3) (not p29) p4) (or p30 p3 (not p12)) (or (not p15) p5 (not p18)) (or (not p27) p33 p4) (or (not p23) (not p11) (not p22)) (or (not p2) p15 p8) (or p1 p22 (not p19)) (or p5 (not p25) (not p12)) (or p12 (not p7) (not p35)) (or p4 (not p3) (not p20)) (or p35 (not p0) p0) (or (not p2) (not p35) (not p38)) (or (not p13) p10 (not p35)) (or (not p39) (not p28) p32) (or p2 (not p5) p13) (or (not p12) p39 (not p25)) (or p37 p18 p30) (or p7 (not p10) p1) (or (not p6) (not p29) p9) (or (not p7) p35 p29) (or p24 (not p16) (not p19)) (or (not p12) (not p10) p31) (or (not p9) p10 p15) (or p14 p35 p28) (or (not p36) p8 p7) (or p24 (not p14) (not p25)) (or (not p28) (not p22) p36) (or (not p20) (not p28) p25) (or p11 p6 p11) (or p16 (not p23) (not p18)) (or p15 (not p1) p21) (or p7 p32 (not p5)) (or (not p6) (not p17) p6) (or p23 p12 p21) (or (not p37) (not p11) (not p36)) (or (not p38) (not p20) p21) (or (not p25) p7 (not p11)) (or p38 (not p36) p37) (or (not p10) (not p19) p7) (or p10 (not p38) (not p1)) (or (not p5) (not p21) (not p23)) (or (not p25) p39 p24) (or p17 (not p35) p22) (or p34 (not p19) (not p23)) (or p23 (not p24) (not p2)) (or p11 p2 (not p10)) (or (not p38) p9 p39) (or (not p24) p4 (not p37)) (or p27 (not p29) p8) (or (not p34) p9 (not p37)) (or (not p21) (not p35) (not p23)) (or (not p24) (not p17) p21) (or p5 (not p9) (not p28)) (or p29 p14 (not p30)) (or (not p13) p8 (not p38)) (or (not p0) p21 p2) (or (not p37) (not p22) (not p33)) (or (not p10) p22 (not p20)) (or (not p4) (not p5) (not p39)) (or (not p27) (not p9) p24) (or p5 (not p35) (not p28)) (or p36 (not p28) (not p34)) (or p24 p19 p35) (or p38 (not p14) p33) (or p10 p30 (not p18)) (or (not p26) p23 (not p28)) (or (not p31) p36 p25) (or p37 p35 p3) (or (not p27) (not p9) p11) (or p11 (not p22) p14) (or (not p3) (not p12) (not p36)) (or p15 p37 (not p22)) (or p34 (not p22) (not p1)) (or (not p38) (not p20) p0) (or (not p6) p11 (not p17)) (or p37 (not p12) p27) (or (not p21) p24 (not p16)) (or p31 (not p21) (not p39)) (or (not p38) (not p36) p35) (or (not p18) p2 p15) (or p32 p23 p10) (or (not p27) p31 (not p21)) (or (not p21) (not p34) p21) (or (not p3) (not p15) (not p31)) (or (not p25) p7 p22) (or (not p13) (not p37) p0) (or p32 (not p23) p27) (or (not p15) (not p16) (not p21)) (or p24 (not p37) p22) (or p17 (not p6) p33) (or (not p1) (not p0) (not p5)) (or (not p17) (not p30) p7) (or p2 p39 (not p3)) (or (not p30) (not p28) (not p19)) (or p18 p26 p1) (or p10 p11 p25) (or (not p2) (not p32) p13) (or p17 p32 (not p36)) (or (not p9) p26 (not p36)) (or p11 p32 (not p0)))
)
(check-sat)
(get-model)
